NAME : X-n439-k37
COMMENT : "Generated by Uchoa, Pecin, Pessoa, Poggi, Subramanian, and Vidal (2013)"
TYPE : CVRP
DIMENSION : 439
EDGE_WEIGHT_TYPE : EUC_2D
EDGE_WEIGHT_FORMAT : 
CAPACITY : 12
DISTANCE : 1.79769e+308
SERVICE_TIME : 0
NODE_COORD_SECTION
1 500 500
2 769 259
3 91 377
4 108 338
5 816 567
6 698 341
7 741 237
8 601 140
9 63 359
10 215 608
11 979 914
12 911 697
13 440 593
14 922 765
15 185 756
16 486 158
17 993 628
18 241 33
19 200 756
20 856 440
21 471 712
22 929 649
23 811 44
24 125 727
25 830 484
26 568 366
27 261 394
28 478 965
29 726 474
30 68 952
31 747 716
32 678 366
33 17 603
34 169 689
35 916 565
36 564 913
37 268 681
38 937 878
39 370 634
40 555 847
41 246 911
42 267 333
43 166 257
44 147 179
45 418 383
46 382 886
47 312 911
48 416 186
49 457 582
50 334 882
51 269 710
52 513 910
53 739 882
54 503 682
55 451 911
56 171 656
57 843 44
58 94 165
59 726 411
60 197 498
61 49 726
62 645 224
63 915 247
64 981 775
65 844 973
66 519 268
67 291 97
68 986 589
69 414 719
70 407 720
71 82 782
72 255 312
73 151 291
74 831 520
75 970 760
76 912 77
77 150 909
78 638 624
79 585 630
80 655 287
81 708 178
82 503 504
83 14 634
84 261 106
85 825 599
86 433 646
87 298 153
88 88 970
89 704 58
90 258 52
91 930 209
92 570 72
93 252 338
94 141 741
95 353 966
96 718 880
97 581 608
98 69 246
99 469 225
100 623 619
101 501 929
102 359 117
103 128 931
104 953 786
105 30 752
106 157 419
107 637 668
108 454 640
109 888 420
110 937 231
111 252 161
112 453 708
113 995 666
114 998 151
115 687 778
116 350 281
117 977 113
118 970 790
119 604 21
120 128 917
121 664 777
122 310 275
123 122 40
124 846 937
125 586 561
126 806 751
127 312 123
128 139 930
129 479 760
130 69 875
131 698 197
132 726 250
133 782 561
134 43 320
135 757 331
136 898 518
137 133 541
138 497 279
139 418 234
140 25 118
141 880 166
142 529 957
143 565 758
144 60 701
145 567 295
146 66 72
147 535 391
148 30 683
149 447 677
150 362 365
151 618 766
152 540 747
153 972 449
154 500 86
155 555 154
156 275 341
157 299 644
158 890 504
159 42 970
160 496 177
161 789 679
162 770 402
163 229 264
164 545 735
165 504 867
166 708 580
167 218 232
168 339 760
169 710 910
170 99 352
171 564 708
172 875 761
173 376 398
174 667 49
175 774 666
176 728 515
177 676 316
178 961 518
179 811 724
180 551 563
181 484 538
182 862 621
183 589 636
184 574 712
185 879 326
186 77 733
187 476 800
188 107 535
189 643 837
190 642 249
191 793 754
192 37 871
193 760 614
194 420 78
195 312 676
196 329 322
197 919 95
198 605 144
199 763 884
200 528 760
201 9 106
202 214 887
203 323 338
204 253 819
205 628 365
206 597 761
207 128 138
208 705 400
209 571 979
210 931 739
211 764 26
212 162 169
213 338 947
214 718 807
215 769 882
216 480 60
217 635 657
218 292 467
219 136 228
220 593 769
221 866 390
222 313 239
223 813 727
224 12 260
225 642 817
226 271 154
227 196 682
228 330 261
229 250 283
230 358 273
231 950 598
232 244 524
233 583 858
234 388 295
235 677 853
236 748 608
237 254 471
238 301 270
239 115 623
240 159 246
241 900 400
242 298 216
243 313 219
244 393 252
245 847 676
246 271 197
247 429 275
248 281 865
249 842 436
250 320 268
251 232 202
252 503 302
253 362 128
254 385 201
255 222 615
256 952 426
257 589 627
258 400 209
259 141 757
260 730 710
261 242 378
262 175 791
263 194 777
264 190 651
265 312 187
266 730 646
267 366 181
268 50 248
269 353 270
270 652 784
271 306 316
272 390 185
273 767 916
274 648 820
275 950 134
276 259 336
277 218 666
278 405 778
279 176 687
280 687 796
281 288 233
282 164 230
283 631 800
284 475 364
285 644 787
286 387 115
287 430 195
288 844 347
289 159 665
290 385 195
291 777 779
292 784 688
293 802 671
294 273 68
295 115 719
296 201 591
297 126 178
298 328 138
299 170 673
300 43 227
301 761 811
302 964 859
303 949 412
304 282 187
305 645 937
306 88 608
307 469 662
308 194 760
309 307 322
310 364 163
311 814 726
312 44 357
313 249 222
314 754 663
315 457 666
316 302 159
317 685 772
318 224 678
319 119 717
320 362 172
321 660 817
322 392 252
323 611 940
324 421 282
325 360 280
326 312 272
327 359 422
328 930 449
329 727 839
330 362 174
331 865 435
332 865 403
333 652 771
334 640 408
335 574 311
336 205 298
337 634 902
338 323 219
339 378 170
340 290 86
341 904 421
342 439 192
343 315 230
344 899 450
345 623 138
346 230 220
347 246 268
348 155 167
349 164 337
350 23 271
351 432 202
352 364 194
353 296 166
354 347 322
355 943 753
356 206 641
357 795 780
358 796 849
359 196 585
360 189 611
361 306 225
362 818 409
363 95 550
364 792 819
365 727 707
366 190 624
367 161 32
368 739 302
369 769 778
370 631 849
371 68 320
372 952 269
373 315 199
374 193 734
375 605 969
376 130 185
377 418 214
378 326 236
379 978 671
380 952 836
381 344 269
382 270 271
383 771 647
384 397 238
385 196 8
386 238 225
387 49 245
388 826 339
389 266 151
390 914 448
391 878 317
392 332 208
393 68 190
394 298 259
395 883 786
396 865 354
397 356 215
398 839 318
399 243 672
400 652 671
401 66 242
402 668 495
403 343 94
404 215 0
405 269 280
406 676 898
407 282 320
408 185 62
409 994 368
410 251 159
411 56 273
412 133 311
413 239 64
414 376 228
415 378 491
416 252 657
417 182 66
418 748 760
419 154 103
420 656 923
421 361 224
422 230 160
423 363 344
424 337 211
425 749 800
426 1 293
427 729 319
428 285 650
429 331 10
430 199 630
431 781 445
432 590 258
433 364 204
434 324 224
435 56 412
436 208 238
437 197 739
438 455 395
439 242 222
PICKUP_AND_DELIVERY_SECTION
1 0 0 0 0 0 0
2 0 0 0 0 0 1
3 0 0 0 0 0 1
4 0 0 0 0 0 1
5 0 0 0 0 0 1
6 0 0 0 0 0 1
7 0 0 0 0 0 1
8 0 0 0 0 0 1
9 0 0 0 0 0 1
10 0 0 0 0 0 1
11 0 0 0 0 1 0
12 0 0 0 0 0 1
13 0 0 0 0 0 1
14 0 0 0 0 0 1
15 0 0 0 0 0 1
16 0 0 0 0 0 1
17 0 0 0 0 0 1
18 0 0 0 0 0 1
19 0 0 0 0 0 1
20 0 0 0 0 0 1
21 0 0 0 0 1 0
22 0 0 0 0 0 1
23 0 0 0 0 0 1
24 0 0 0 0 0 1
25 0 0 0 0 0 1
26 0 0 0 0 0 1
27 0 0 0 0 0 1
28 0 0 0 0 0 1
29 0 0 0 0 0 1
30 0 0 0 0 0 1
31 0 0 0 0 1 0
32 0 0 0 0 0 1
33 0 0 0 0 0 1
34 0 0 0 0 0 1
35 0 0 0 0 0 1
36 0 0 0 0 0 1
37 0 0 0 0 0 1
38 0 0 0 0 0 1
39 0 0 0 0 0 1
40 0 0 0 0 0 1
41 0 0 0 0 1 0
42 0 0 0 0 0 1
43 0 0 0 0 0 1
44 0 0 0 0 0 1
45 0 0 0 0 0 1
46 0 0 0 0 0 1
47 0 0 0 0 0 1
48 0 0 0 0 0 1
49 0 0 0 0 0 1
50 0 0 0 0 0 1
51 0 0 0 0 1 0
52 0 0 0 0 0 1
53 0 0 0 0 0 1
54 0 0 0 0 0 1
55 0 0 0 0 0 1
56 0 0 0 0 0 1
57 0 0 0 0 0 1
58 0 0 0 0 0 1
59 0 0 0 0 0 1
60 0 0 0 0 0 1
61 0 0 0 0 1 0
62 0 0 0 0 0 1
63 0 0 0 0 0 1
64 0 0 0 0 0 1
65 0 0 0 0 0 1
66 0 0 0 0 0 1
67 0 0 0 0 0 1
68 0 0 0 0 0 1
69 0 0 0 0 0 1
70 0 0 0 0 0 1
71 0 0 0 0 1 0
72 0 0 0 0 0 1
73 0 0 0 0 0 1
74 0 0 0 0 0 1
75 0 0 0 0 0 1
76 0 0 0 0 0 1
77 0 0 0 0 0 1
78 0 0 0 0 0 1
79 0 0 0 0 0 1
80 0 0 0 0 0 1
81 0 0 0 0 1 0
82 0 0 0 0 0 1
83 0 0 0 0 0 1
84 0 0 0 0 0 1
85 0 0 0 0 0 1
86 0 0 0 0 0 1
87 0 0 0 0 0 1
88 0 0 0 0 0 1
89 0 0 0 0 0 1
90 0 0 0 0 0 1
91 0 0 0 0 1 0
92 0 0 0 0 0 1
93 0 0 0 0 0 1
94 0 0 0 0 0 1
95 0 0 0 0 0 1
96 0 0 0 0 0 1
97 0 0 0 0 0 1
98 0 0 0 0 0 1
99 0 0 0 0 0 1
100 0 0 0 0 0 1
101 0 0 0 0 1 0
102 0 0 0 0 0 1
103 0 0 0 0 0 1
104 0 0 0 0 0 1
105 0 0 0 0 0 1
106 0 0 0 0 0 1
107 0 0 0 0 0 1
108 0 0 0 0 0 1
109 0 0 0 0 0 1
110 0 0 0 0 0 1
111 0 0 0 0 1 0
112 0 0 0 0 0 1
113 0 0 0 0 0 1
114 0 0 0 0 0 1
115 0 0 0 0 0 1
116 0 0 0 0 0 1
117 0 0 0 0 0 1
118 0 0 0 0 0 1
119 0 0 0 0 0 1
120 0 0 0 0 0 1
121 0 0 0 0 1 0
122 0 0 0 0 0 1
123 0 0 0 0 0 1
124 0 0 0 0 0 1
125 0 0 0 0 0 1
126 0 0 0 0 0 1
127 0 0 0 0 0 1
128 0 0 0 0 0 1
129 0 0 0 0 0 1
130 0 0 0 0 0 1
131 0 0 0 0 1 0
132 0 0 0 0 0 1
133 0 0 0 0 0 1
134 0 0 0 0 0 1
135 0 0 0 0 0 1
136 0 0 0 0 0 1
137 0 0 0 0 0 1
138 0 0 0 0 0 1
139 0 0 0 0 0 1
140 0 0 0 0 0 1
141 0 0 0 0 1 0
142 0 0 0 0 0 1
143 0 0 0 0 0 1
144 0 0 0 0 0 1
145 0 0 0 0 0 1
146 0 0 0 0 0 1
147 0 0 0 0 0 1
148 0 0 0 0 0 1
149 0 0 0 0 0 1
150 0 0 0 0 0 1
151 0 0 0 0 1 0
152 0 0 0 0 0 1
153 0 0 0 0 0 1
154 0 0 0 0 0 1
155 0 0 0 0 0 1
156 0 0 0 0 0 1
157 0 0 0 0 0 1
158 0 0 0 0 0 1
159 0 0 0 0 0 1
160 0 0 0 0 0 1
161 0 0 0 0 1 0
162 0 0 0 0 0 1
163 0 0 0 0 0 1
164 0 0 0 0 0 1
165 0 0 0 0 0 1
166 0 0 0 0 0 1
167 0 0 0 0 0 1
168 0 0 0 0 0 1
169 0 0 0 0 0 1
170 0 0 0 0 0 1
171 0 0 0 0 1 0
172 0 0 0 0 0 1
173 0 0 0 0 0 1
174 0 0 0 0 0 1
175 0 0 0 0 0 1
176 0 0 0 0 0 1
177 0 0 0 0 0 1
178 0 0 0 0 0 1
179 0 0 0 0 0 1
180 0 0 0 0 0 1
181 0 0 0 0 1 0
182 0 0 0 0 0 1
183 0 0 0 0 0 1
184 0 0 0 0 0 1
185 0 0 0 0 0 1
186 0 0 0 0 0 1
187 0 0 0 0 0 1
188 0 0 0 0 0 1
189 0 0 0 0 0 1
190 0 0 0 0 0 1
191 0 0 0 0 1 0
192 0 0 0 0 0 1
193 0 0 0 0 0 1
194 0 0 0 0 0 1
195 0 0 0 0 0 1
196 0 0 0 0 0 1
197 0 0 0 0 0 1
198 0 0 0 0 0 1
199 0 0 0 0 0 1
200 0 0 0 0 0 1
201 0 0 0 0 1 0
202 0 0 0 0 0 1
203 0 0 0 0 0 1
204 0 0 0 0 0 1
205 0 0 0 0 0 1
206 0 0 0 0 0 1
207 0 0 0 0 0 1
208 0 0 0 0 0 1
209 0 0 0 0 0 1
210 0 0 0 0 0 1
211 0 0 0 0 1 0
212 0 0 0 0 0 1
213 0 0 0 0 0 1
214 0 0 0 0 0 1
215 0 0 0 0 0 1
216 0 0 0 0 0 1
217 0 0 0 0 0 1
218 0 0 0 0 0 1
219 0 0 0 0 0 1
220 0 0 0 0 0 1
221 0 0 0 0 1 0
222 0 0 0 0 0 1
223 0 0 0 0 0 1
224 0 0 0 0 0 1
225 0 0 0 0 0 1
226 0 0 0 0 0 1
227 0 0 0 0 0 1
228 0 0 0 0 0 1
229 0 0 0 0 0 1
230 0 0 0 0 0 1
231 0 0 0 0 1 0
232 0 0 0 0 0 1
233 0 0 0 0 0 1
234 0 0 0 0 0 1
235 0 0 0 0 0 1
236 0 0 0 0 0 1
237 0 0 0 0 0 1
238 0 0 0 0 0 1
239 0 0 0 0 0 1
240 0 0 0 0 0 1
241 0 0 0 0 1 0
242 0 0 0 0 0 1
243 0 0 0 0 0 1
244 0 0 0 0 0 1
245 0 0 0 0 0 1
246 0 0 0 0 0 1
247 0 0 0 0 0 1
248 0 0 0 0 0 1
249 0 0 0 0 0 1
250 0 0 0 0 0 1
251 0 0 0 0 1 0
252 0 0 0 0 0 1
253 0 0 0 0 0 1
254 0 0 0 0 0 1
255 0 0 0 0 0 1
256 0 0 0 0 0 1
257 0 0 0 0 0 1
258 0 0 0 0 0 1
259 0 0 0 0 0 1
260 0 0 0 0 0 1
261 0 0 0 0 1 0
262 0 0 0 0 0 1
263 0 0 0 0 0 1
264 0 0 0 0 0 1
265 0 0 0 0 0 1
266 0 0 0 0 0 1
267 0 0 0 0 0 1
268 0 0 0 0 0 1
269 0 0 0 0 0 1
270 0 0 0 0 0 1
271 0 0 0 0 1 0
272 0 0 0 0 0 1
273 0 0 0 0 0 1
274 0 0 0 0 0 1
275 0 0 0 0 0 1
276 0 0 0 0 0 1
277 0 0 0 0 0 1
278 0 0 0 0 0 1
279 0 0 0 0 0 1
280 0 0 0 0 0 1
281 0 0 0 0 1 0
282 0 0 0 0 0 1
283 0 0 0 0 0 1
284 0 0 0 0 0 1
285 0 0 0 0 0 1
286 0 0 0 0 0 1
287 0 0 0 0 0 1
288 0 0 0 0 0 1
289 0 0 0 0 0 1
290 0 0 0 0 0 1
291 0 0 0 0 1 0
292 0 0 0 0 0 1
293 0 0 0 0 0 1
294 0 0 0 0 0 1
295 0 0 0 0 0 1
296 0 0 0 0 0 1
297 0 0 0 0 0 1
298 0 0 0 0 0 1
299 0 0 0 0 0 1
300 0 0 0 0 0 1
301 0 0 0 0 1 0
302 0 0 0 0 0 1
303 0 0 0 0 0 1
304 0 0 0 0 0 1
305 0 0 0 0 0 1
306 0 0 0 0 0 1
307 0 0 0 0 0 1
308 0 0 0 0 0 1
309 0 0 0 0 0 1
310 0 0 0 0 0 1
311 0 0 0 0 1 0
312 0 0 0 0 0 1
313 0 0 0 0 0 1
314 0 0 0 0 0 1
315 0 0 0 0 0 1
316 0 0 0 0 0 1
317 0 0 0 0 0 1
318 0 0 0 0 0 1
319 0 0 0 0 0 1
320 0 0 0 0 0 1
321 0 0 0 0 1 0
322 0 0 0 0 0 1
323 0 0 0 0 0 1
324 0 0 0 0 0 1
325 0 0 0 0 0 1
326 0 0 0 0 0 1
327 0 0 0 0 0 1
328 0 0 0 0 0 1
329 0 0 0 0 0 1
330 0 0 0 0 0 1
331 0 0 0 0 1 0
332 0 0 0 0 0 1
333 0 0 0 0 0 1
334 0 0 0 0 0 1
335 0 0 0 0 0 1
336 0 0 0 0 0 1
337 0 0 0 0 0 1
338 0 0 0 0 0 1
339 0 0 0 0 0 1
340 0 0 0 0 0 1
341 0 0 0 0 1 0
342 0 0 0 0 0 1
343 0 0 0 0 0 1
344 0 0 0 0 0 1
345 0 0 0 0 0 1
346 0 0 0 0 0 1
347 0 0 0 0 0 1
348 0 0 0 0 0 1
349 0 0 0 0 0 1
350 0 0 0 0 0 1
351 0 0 0 0 1 0
352 0 0 0 0 0 1
353 0 0 0 0 0 1
354 0 0 0 0 0 1
355 0 0 0 0 0 1
356 0 0 0 0 0 1
357 0 0 0 0 0 1
358 0 0 0 0 0 1
359 0 0 0 0 0 1
360 0 0 0 0 0 1
361 0 0 0 0 1 0
362 0 0 0 0 0 1
363 0 0 0 0 0 1
364 0 0 0 0 0 1
365 0 0 0 0 0 1
366 0 0 0 0 0 1
367 0 0 0 0 0 1
368 0 0 0 0 0 1
369 0 0 0 0 0 1
370 0 0 0 0 0 1
371 0 0 0 0 1 0
372 0 0 0 0 0 1
373 0 0 0 0 0 1
374 0 0 0 0 0 1
375 0 0 0 0 0 1
376 0 0 0 0 0 1
377 0 0 0 0 0 1
378 0 0 0 0 0 1
379 0 0 0 0 0 1
380 0 0 0 0 0 1
381 0 0 0 0 1 0
382 0 0 0 0 0 1
383 0 0 0 0 0 1
384 0 0 0 0 0 1
385 0 0 0 0 0 1
386 0 0 0 0 0 1
387 0 0 0 0 0 1
388 0 0 0 0 0 1
389 0 0 0 0 0 1
390 0 0 0 0 0 1
391 0 0 0 0 1 0
392 0 0 0 0 0 1
393 0 0 0 0 0 1
394 0 0 0 0 0 1
395 0 0 0 0 0 1
396 0 0 0 0 0 1
397 0 0 0 0 0 1
398 0 0 0 0 0 1
399 0 0 0 0 0 1
400 0 0 0 0 0 1
401 0 0 0 0 1 0
402 0 0 0 0 0 1
403 0 0 0 0 0 1
404 0 0 0 0 0 1
405 0 0 0 0 0 1
406 0 0 0 0 0 1
407 0 0 0 0 0 1
408 0 0 0 0 0 1
409 0 0 0 0 0 1
410 0 0 0 0 0 1
411 0 0 0 0 1 0
412 0 0 0 0 0 1
413 0 0 0 0 0 1
414 0 0 0 0 0 1
415 0 0 0 0 0 1
416 0 0 0 0 0 1
417 0 0 0 0 0 1
418 0 0 0 0 0 1
419 0 0 0 0 0 1
420 0 0 0 0 0 1
421 0 0 0 0 1 0
422 0 0 0 0 0 1
423 0 0 0 0 0 1
424 0 0 0 0 0 1
425 0 0 0 0 0 1
426 0 0 0 0 0 1
427 0 0 0 0 0 1
428 0 0 0 0 0 1
429 0 0 0 0 0 1
430 0 0 0 0 0 1
431 0 0 0 0 1 0
432 0 0 0 0 0 1
433 0 0 0 0 0 1
434 0 0 0 0 0 1
435 0 0 0 0 0 1
436 0 0 0 0 0 1
437 0 0 0 0 0 1
438 0 0 0 0 0 1
439 0 0 0 0 0 1
